(set-info :smt-lib-version 2.6)
(set-logic QF_LIA)
(set-info :source |
Alberto Griggio

|)
(set-info :category "random")
(set-info :status sat)
(declare-fun x0 () Int)
(declare-fun x1 () Int)
(declare-fun x2 () Int)
(declare-fun x3 () Int)
(declare-fun x4 () Int)
(declare-fun x5 () Int)
(declare-fun x6 () Int)
(declare-fun x7 () Int)
(declare-fun x8 () Int)
(declare-fun x9 () Int)
(declare-fun x10 () Int)
(declare-fun x11 () Int)
(declare-fun x12 () Int)
(declare-fun x13 () Int)
(declare-fun x14 () Int)
(declare-fun x15 () Int)
(declare-fun x16 () Int)
(declare-fun x17 () Int)
(declare-fun x18 () Int)
(declare-fun x19 () Int)
(declare-fun x20 () Int)
(declare-fun x21 () Int)
(declare-fun x22 () Int)
(declare-fun x23 () Int)
(declare-fun x24 () Int)
(declare-fun x25 () Int)
(declare-fun x26 () Int)
(declare-fun x27 () Int)
(declare-fun x28 () Int)
(declare-fun x29 () Int)
(declare-fun x30 () Int)
(declare-fun x31 () Int)
(declare-fun x32 () Int)
(declare-fun x33 () Int)
(declare-fun x34 () Int)
(assert (let ((?v_91 (* 1 x4)) (?v_7 (* 0 x30)) (?v_4 (* 1 x15)) (?v_55 (* 1 x16)) (?v_72 (* 1 x22)) (?v_0 (* 0 x14)) (?v_19 (* 1 x2)) (?v_21 (* 1 x24)) (?v_52 (* 0 x9)) (?v_50 (* 1 x18)) (?v_6 (* 0 x15)) (?v_1 (* 0 x12)) (?v_23 (* 0 x25)) (?v_11 (* 1 x28)) (?v_2 (* 0 x27)) (?v_29 (* 0 x3)) (?v_66 (* 1 x11)) (?v_5 (* 0 x24)) (?v_80 (* 1 x23)) (?v_8 (* 0 x21)) (?v_9 (* 0 x23)) (?v_64 (* 1 x17)) (?v_10 (* 0 x7)) (?v_65 (* 1 x19)) (?v_56 (* 0 x10)) (?v_12 (* 0 x2)) (?v_13 (* 0 x1)) (?v_15 (* 0 x19)) (?v_16 (* 0 x16)) (?v_17 (* 0 x32)) (?v_18 (* 0 x22)) (?v_44 (* 0 x26)) (?v_70 (* 1 x8)) (?v_42 (* 0 x5)) (?v_25 (* 1 x0)) (?v_93 (* 1 x30)) (?v_77 (* 1 x12)) (?v_40 (* 0 x20)) (?v_30 (* 1 x6)) (?v_22 (* 0 x18)) (?v_24 (* 0 x13)) (?v_79 (* 1 x21)) (?v_45 (* 1 x34)) (?v_57 (* 1 x13)) (?v_39 (* 1 x9)) (?v_59 (* 0 x8)) (?v_88 (* 1 x10)) (?v_14 (* 0 x6)) (?v_37 (* 1 x3)) (?v_67 (* 1 x14)) (?v_53 (* 0 x11)) (?v_43 (* 1 x26)) (?v_61 (* 1 x29)) (?v_34 (* 0 x0)) (?v_35 (* 0 x29)) (?v_81 (* 1 x5)) (?v_51 (* 0 x31)) (?v_60 (* 0 x33)) (?v_89 (* 1 x7)) (?v_103 (* 1 x25)) (?v_58 (* 1 x20)) (?v_69 (* 1 x33)) (?v_62 (* 1 x1)) (?v_63 (* 0 x4)) (?v_99 (* 1 x32)) (?v_74 (* 1 x27)) (?v_76 (* 0 x28)) (?v_98 (* 1 x31)) (?v_97 (* 0 x17)) (?v_27 (* 0 x34)) (?v_87 (* (- 1) x33)) (?v_47 (* (- 1) x4)) (?v_46 (* (- 1) x30)) (?v_3 (* (- 1) x0)) (?v_78 (* (- 1) x14)) (?v_102 (* (- 1) x28)) (?v_28 (* (- 1) x23)) (?v_36 (* (- 1) x22)) (?v_83 (* (- 1) x16)) (?v_84 (* (- 1) x8)) (?v_101 (* (- 1) x5)) (?v_26 (* (- 1) x32)) (?v_20 (* (- 1) x26)) (?v_41 (* (- 1) x6)) (?v_86 (* (- 1) x19)) (?v_33 (* (- 1) x25)) (?v_95 (* (- 1) x11)) (?v_100 (* (- 1) x24)) (?v_49 (* (- 1) x20)) (?v_90 (* (- 1) x29)) (?v_54 (* (- 1) x2)) (?v_32 (* (- 1) x12)) (?v_31 (* (- 1) x15)) (?v_38 (* (- 1) x31)) (?v_85 (* (- 1) x13)) (?v_75 (* (- 1) x21)) (?v_82 (* (- 1) x18)) (?v_48 (* (- 1) x7)) (?v_73 (* (- 1) x3)) (?v_71 (* (- 1) x27)) (?v_68 (* (- 1) x34)) (?v_96 (* (- 1) x17)) (?v_94 (* (- 1) x9)) (?v_92 (* (- 1) x1)) (?v_104 (* (- 1) x10))) (and (<= (+ ?v_91 ?v_7 ?v_4 ?v_55 ?v_72 ?v_5 ?v_14 ?v_0 ?v_19 ?v_87 ?v_21 ?v_17 ?v_0 ?v_52 ?v_47 ?v_34 ?v_9 ?v_46 ?v_50 ?v_2 ?v_6 ?v_16 ?v_8 ?v_3 ?v_78 ?v_102 ?v_13 ?v_1 ?v_28 ?v_1 ?v_23 ?v_15 ?v_24 ?v_36 ?v_11) (- 1)) (<= (+ ?v_2 ?v_83 ?v_3 ?v_4 ?v_29 ?v_66 ?v_5 ?v_80 ?v_6 ?v_7 ?v_8 ?v_9 ?v_84 ?v_64 ?v_51 ?v_7 ?v_10 ?v_10 ?v_22 ?v_65 ?v_11 ?v_56 ?v_12 ?v_12 ?v_13 ?v_18 ?v_76 ?v_7 ?v_14 ?v_15 ?v_101 ?v_16 ?v_17 ?v_26 ?v_10) 0) (<= (+ ?v_18 ?v_11 ?v_44 ?v_70 ?v_42 ?v_20 ?v_19 ?v_25 ?v_20 ?v_41 ?v_93 ?v_21 ?v_22 ?v_86 ?v_77 ?v_13 ?v_40 ?v_33 ?v_30 ?v_1 ?v_22 ?v_35 ?v_22 ?v_23 ?v_24 ?v_27 ?v_95 ?v_3 ?v_79 ?v_45 ?v_57 ?v_4 ?v_8 ?v_100 ?v_49) 0) (<= (+ ?v_25 ?v_21 ?v_22 ?v_8 ?v_12 ?v_90 ?v_39 ?v_59 ?v_26 ?v_54 ?v_27 ?v_88 ?v_28 ?v_3 ?v_9 ?v_14 ?v_32 ?v_37 ?v_6 ?v_2 ?v_29 ?v_31 ?v_67 ?v_3 ?v_30 ?v_53 ?v_7 ?v_4 ?v_31 ?v_43 ?v_61 ?v_21 ?v_32 ?v_33 ?v_34) 0) (<= (+ ?v_10 ?v_26 ?v_9 ?v_19 ?v_35 ?v_36 ?v_37 ?v_38 ?v_33 ?v_38 ?v_18 ?v_39 ?v_7 ?v_40 ?v_41 ?v_85 ?v_21 ?v_42 ?v_4 ?v_43 ?v_44 ?v_75 ?v_6 ?v_1 ?v_29 ?v_35 ?v_39 ?v_19 ?v_45 ?v_34 ?v_82 ?v_1 ?v_16 ?v_81 ?v_22) 1) (<= (+ ?v_45 ?v_30 ?v_48 ?v_73 ?v_44 ?v_11 ?v_46 ?v_47 ?v_48 ?v_49 ?v_1 ?v_50 ?v_51 ?v_52 ?v_13 ?v_53 ?v_54 ?v_28 ?v_55 ?v_17 ?v_10 ?v_15 ?v_5 ?v_60 ?v_24 ?v_71 ?v_89 ?v_47 ?v_28 ?v_19 ?v_56 ?v_1 ?v_37 ?v_44 ?v_44) 0) (<= (+ ?v_103 ?v_33 ?v_58 ?v_35 ?v_6 ?v_5 ?v_50 ?v_20 ?v_24 ?v_57 ?v_55 ?v_3 ?v_9 ?v_58 ?v_24 ?v_59 ?v_43 ?v_15 ?v_68 ?v_20 ?v_60 ?v_96 ?v_61 ?v_69 ?v_60 ?v_19 ?v_5 ?v_26 ?v_35 ?v_48 ?v_61 ?v_4 ?v_63 ?v_2 ?v_26) 0) (<= (+ ?v_62 ?v_59 ?v_62 ?v_63 ?v_15 ?v_63 ?v_64 ?v_53 ?v_15 ?v_48 ?v_65 ?v_27 ?v_33 ?v_11 ?v_39 ?v_43 ?v_29 ?v_47 ?v_11 ?v_0 ?v_25 ?v_56 ?v_22 ?v_22 ?v_22 ?v_28 ?v_12 ?v_46 ?v_22 ?v_49 ?v_62 ?v_28 ?v_66 ?v_44 ?v_23) 1) (<= (+ ?v_99 ?v_67 ?v_68 ?v_15 ?v_53 ?v_42 ?v_25 ?v_34 ?v_59 ?v_3 ?v_43 ?v_38 ?v_10 ?v_65 ?v_60 ?v_74 ?v_69 ?v_5 ?v_11 ?v_7 ?v_11 ?v_44 ?v_70 ?v_6 ?v_94 ?v_71 ?v_60 ?v_20 ?v_72 ?v_27 ?v_27 ?v_15 ?v_73 ?v_56 ?v_66) 0) (<= (+ ?v_74 ?v_92 ?v_25 ?v_51 ?v_37 ?v_21 ?v_58 ?v_68 ?v_44 ?v_10 ?v_71 ?v_29 ?v_50 ?v_15 ?v_21 ?v_71 ?v_15 ?v_75 ?v_54 ?v_10 ?v_31 ?v_13 ?v_76 ?v_13 ?v_12 ?v_22 ?v_77 ?v_56 ?v_72 ?v_78 ?v_63 ?v_79 ?v_59 ?v_80 ?v_81) (- 1)) (<= (+ ?v_15 ?v_76 ?v_76 ?v_68 ?v_7 ?v_51 ?v_82 ?v_17 ?v_25 ?v_76 ?v_2 ?v_81 ?v_35 ?v_56 ?v_19 ?v_10 ?v_47 ?v_8 ?v_62 ?v_83 ?v_44 ?v_39 ?v_18 ?v_76 ?v_84 ?v_32 ?v_31 ?v_67 ?v_18 ?v_65 ?v_75 ?v_85 ?v_1 ?v_56 ?v_40) 1) (<= (+ ?v_13 ?v_8 ?v_78 ?v_74 ?v_40 ?v_86 ?v_61 ?v_80 ?v_36 ?v_16 ?v_12 ?v_10 ?v_76 ?v_38 ?v_87 ?v_54 ?v_30 ?v_49 ?v_6 ?v_45 ?v_59 ?v_88 ?v_38 ?v_13 ?v_52 ?v_89 ?v_15 ?v_13 ?v_40 ?v_63 ?v_78 ?v_90 ?v_34 ?v_72 ?v_82) 0) (<= (+ ?v_21 ?v_77 ?v_52 ?v_24 ?v_81 ?v_32 ?v_7 ?v_91 ?v_24 ?v_52 ?v_51 ?v_92 ?v_34 ?v_30 ?v_17 ?v_78 ?v_66 ?v_14 ?v_85 ?v_14 ?v_76 ?v_97 ?v_17 ?v_3 ?v_93 ?v_52 ?v_3 ?v_61 ?v_53 ?v_92 ?v_35 ?v_42 ?v_60 ?v_7 ?v_52) (- 1)) (<= (+ ?v_19 ?v_34 ?v_56 ?v_94 ?v_59 ?v_73 ?v_35 ?v_46 ?v_95 ?v_63 ?v_0 ?v_37 ?v_43 ?v_24 ?v_7 ?v_5 ?v_24 ?v_42 ?v_12 ?v_53 ?v_14 ?v_34 ?v_69 ?v_1 ?v_40 ?v_55 ?v_41 ?v_1 ?v_76 ?v_42 ?v_20 ?v_52 ?v_37 ?v_7 ?v_76) (- 1)) (<= (+ ?v_30 ?v_61 ?v_2 ?v_94 ?v_47 ?v_74 ?v_8 ?v_37 ?v_84 ?v_8 ?v_59 ?v_14 ?v_52 ?v_58 ?v_78 ?v_66 ?v_28 ?v_1 ?v_78 ?v_4 ?v_98 ?v_53 ?v_13 ?v_82 ?v_45 ?v_31 ?v_10 ?v_57 ?v_42 ?v_13 ?v_89 ?v_40 ?v_79 ?v_37 ?v_3) 1) (<= (+ ?v_14 ?v_89 ?v_65 ?v_61 ?v_69 ?v_50 ?v_24 ?v_96 ?v_19 ?v_10 ?v_84 ?v_97 ?v_1 ?v_35 ?v_2 ?v_19 ?v_34 ?v_36 ?v_35 ?v_98 ?v_99 ?v_16 ?v_69 ?v_61 ?v_42 ?v_90 ?v_23 ?v_97 ?v_10 ?v_46 ?v_60 ?v_36 ?v_63 ?v_36 ?v_9) 0) (<= (+ ?v_62 ?v_66 ?v_76 ?v_60 ?v_65 ?v_40 ?v_50 ?v_23 ?v_23 ?v_52 ?v_83 ?v_95 ?v_35 ?v_42 ?v_81 ?v_6 ?v_96 ?v_49 ?v_46 ?v_22 ?v_100 ?v_76 ?v_3 ?v_97 ?v_42 ?v_27 ?v_40 ?v_29 ?v_61 ?v_47 ?v_101 ?v_88 ?v_15 ?v_0 ?v_81) 0) (<= (+ ?v_22 ?v_60 ?v_34 ?v_44 ?v_76 ?v_75 ?v_50 ?v_67 ?v_62 ?v_40 ?v_76 ?v_52 ?v_14 ?v_20 ?v_41 ?v_81 ?v_83 ?v_55 ?v_45 ?v_101 ?v_95 ?v_12 ?v_91 ?v_18 ?v_2 ?v_1 ?v_69 ?v_41 ?v_2 ?v_99 ?v_40 ?v_36 ?v_100 ?v_61 ?v_4) 1) (<= (+ ?v_4 ?v_9 ?v_57 ?v_72 ?v_5 ?v_27 ?v_102 ?v_53 ?v_36 ?v_10 ?v_17 ?v_64 ?v_63 ?v_103 ?v_35 ?v_6 ?v_99 ?v_37 ?v_17 ?v_96 ?v_51 ?v_100 ?v_31 ?v_84 ?v_24 ?v_31 ?v_32 ?v_30 ?v_44 ?v_14 ?v_44 ?v_60 ?v_6 ?v_89 ?v_104) (- 1)) (<= (+ ?v_91 ?v_9 ?v_27 ?v_5 ?v_0 ?v_66 ?v_45 ?v_97 ?v_98 ?v_54 ?v_6 ?v_72 ?v_24 ?v_18 ?v_15 ?v_25 ?v_23 ?v_83 ?v_71 ?v_44 ?v_97 ?v_27 ?v_12 ?v_14 ?v_90 ?v_43 ?v_75 ?v_97 ?v_94 ?v_99 ?v_10 ?v_48 ?v_18 ?v_0 ?v_52) 0) (<= (+ ?v_4 ?v_54 ?v_34 ?v_71 ?v_14 ?v_104 ?v_37 ?v_95 ?v_84 ?v_54 ?v_93 ?v_28 ?v_17 ?v_16 ?v_21 ?v_43 ?v_9 ?v_76 ?v_12 ?v_51 ?v_43 ?v_84 ?v_10 ?v_17 ?v_95 ?v_52 ?v_56 ?v_19 ?v_88 ?v_27 ?v_1 ?v_15 ?v_9 ?v_32 ?v_29) 0) (<= (+ ?v_61 ?v_8 ?v_9 ?v_51 ?v_12 ?v_77 ?v_78 ?v_7 ?v_76 ?v_27 ?v_37 ?v_35 ?v_32 ?v_23 ?v_50 ?v_63 ?v_102 ?v_29 ?v_27 ?v_13 ?v_39 ?v_51 ?v_13 ?v_56 ?v_53 ?v_61 ?v_13 ?v_94 ?v_84 ?v_62 ?v_103 ?v_83 ?v_41 ?v_17 ?v_40) 0) (<= (+ ?v_7 ?v_52 ?v_52 ?v_5 ?v_7 ?v_82 ?v_30 ?v_61 ?v_8 ?v_104 ?v_23 ?v_53 ?v_59 ?v_31 ?v_94 ?v_92 ?v_94 ?v_25 ?v_38 ?v_52 ?v_94 ?v_94 ?v_46 ?v_27 ?v_18 ?v_17 ?v_18 ?v_94 ?v_6 ?v_0 ?v_37 ?v_3 ?v_2 ?v_18 ?v_72) 1) (<= (+ ?v_2 ?v_94 ?v_88 ?v_55 ?v_13 ?v_91 ?v_34 ?v_27 ?v_2 ?v_1 ?v_67 ?v_86 ?v_37 ?v_95 ?v_101 ?v_10 ?v_23 ?v_69 ?v_46 ?v_0 ?v_15 ?v_39 ?v_91 ?v_8 ?v_63 ?v_29 ?v_98 ?v_39 ?v_46 ?v_34 ?v_69 ?v_61 ?v_94 ?v_10 ?v_6) (- 1)) (<= (+ ?v_23 ?v_84 ?v_7 ?v_92 ?v_63 ?v_38 ?v_22 ?v_42 ?v_4 ?v_98 ?v_5 ?v_17 ?v_22 ?v_103 ?v_94 ?v_13 ?v_56 ?v_14 ?v_104 ?v_11 ?v_102 ?v_96 ?v_14 ?v_33 ?v_29 ?v_60 ?v_2 ?v_58 ?v_64 ?v_21 ?v_71 ?v_15 ?v_41 ?v_40 ?v_19) (- 1)) (<= (+ ?v_62 ?v_84 ?v_8 ?v_99 ?v_12 ?v_19 ?v_64 ?v_59 ?v_27 ?v_23 ?v_97 ?v_38 ?v_43 ?v_78 ?v_56 ?v_39 ?v_31 ?v_13 ?v_6 ?v_33 ?v_82 ?v_94 ?v_70 ?v_17 ?v_1 ?v_53 ?v_62 ?v_25 ?v_97 ?v_98 ?v_85 ?v_69 ?v_15 ?v_2 ?v_52) 0) (<= (+ ?v_22 ?v_51 ?v_24 ?v_53 ?v_44 ?v_46 ?v_22 ?v_90 ?v_38 ?v_75 ?v_18 ?v_92 ?v_15 ?v_38 ?v_14 ?v_7 ?v_75 ?v_56 ?v_51 ?v_62 ?v_71 ?v_29 ?v_57 ?v_54 ?v_37 ?v_50 ?v_52 ?v_40 ?v_39 ?v_70 ?v_15 ?v_92 ?v_18 ?v_0 ?v_66) 0) (<= (+ ?v_6 ?v_77 ?v_67 ?v_50 ?v_18 ?v_13 ?v_16 ?v_73 ?v_14 ?v_98 ?v_29 ?v_6 ?v_50 ?v_40 ?v_3 ?v_86 ?v_1 ?v_74 ?v_46 ?v_71 ?v_5 ?v_90 ?v_30 ?v_53 ?v_90 ?v_94 ?v_66 ?v_18 ?v_1 ?v_0 ?v_68 ?v_82 ?v_19 ?v_95 ?v_10) 1) (<= (+ ?v_55 ?v_34 ?v_103 ?v_64 ?v_89 ?v_17 ?v_83 ?v_88 ?v_23 ?v_12 ?v_7 ?v_30 ?v_4 ?v_96 ?v_14 ?v_61 ?v_79 ?v_12 ?v_7 ?v_96 ?v_51 ?v_13 ?v_52 ?v_51 ?v_53 ?v_40 ?v_61 ?v_76 ?v_89 ?v_15 ?v_7 ?v_8 ?v_2 ?v_73 ?v_2) 1) (<= (+ ?v_25 ?v_53 ?v_82 ?v_85 ?v_60 ?v_44 ?v_9 ?v_11 ?v_104 ?v_21 ?v_14 ?v_66 ?v_70 ?v_16 ?v_82 ?v_94 ?v_63 ?v_34 ?v_2 ?v_76 ?v_53 ?v_42 ?v_2 ?v_37 ?v_68 ?v_52 ?v_15 ?v_18 ?v_87 ?v_75 ?v_88 ?v_18 ?v_1 ?v_69 ?v_102) 0))))
(check-sat)
(exit)
